c colouring generated by benchmark framework
p edge 300 21633
v 1 28
v 2 26
v 3 12
v 4 14
v 5 10
v 6 52
v 7 49
v 8 21
v 9 13
v 10 17
v 11 43
v 12 11
v 13 1
v 14 2
v 15 44
v 16 0
v 17 32
v 18 34
v 19 14
v 20 42
v 21 5
v 22 13
v 23 20
v 24 12
v 25 7
v 26 6
v 27 2
v 28 18
v 29 28
v 30 3
v 31 28
v 32 17
v 33 12
v 34 53
v 35 20
v 36 49
v 37 1
v 38 23
v 39 12
v 40 31
v 41 38
v 42 19
v 43 31
v 44 6
v 45 29
v 46 19
v 47 54
v 48 15
v 49 46
v 50 11
v 51 20
v 52 41
v 53 29
v 54 30
v 55 22
v 56 35
v 57 13
v 58 10
v 59 9
v 60 13
v 61 6
v 62 47
v 63 16
v 64 17
v 65 16
v 66 48
v 67 3
v 68 34
v 69 6
v 70 12
v 71 25
v 72 54
v 73 11
v 74 41
v 75 40
v 76 29
v 77 32
v 78 4
v 79 31
v 80 1
v 81 3
v 82 37
v 83 33
v 84 19
v 85 7
v 86 0
v 87 4
v 88 5
v 89 40
v 90 26
v 91 33
v 92 25
v 93 5
v 94 11
v 95 19
v 96 51
v 97 18
v 98 22
v 99 14
v 100 27
v 101 11
v 102 44
v 103 7
v 104 14
v 105 33
v 106 44
v 107 8
v 108 11
v 109 29
v 110 17
v 111 19
v 112 3
v 113 13
v 114 15
v 115 2
v 116 38
v 117 37
v 118 17
v 119 2
v 120 52
v 121 19
v 122 28
v 123 39
v 124 46
v 125 3
v 126 53
v 127 1
v 128 6
v 129 5
v 130 16
v 131 2
v 132 16
v 133 36
v 134 37
v 135 21
v 136 9
v 137 10
v 138 15
v 139 44
v 140 2
v 141 37
v 142 18
v 143 23
v 144 15
v 145 32
v 146 15
v 147 23
v 148 24
v 149 21
v 150 34
v 151 16
v 152 30
v 153 51
v 154 48
v 155 16
v 156 24
v 157 18
v 158 6
v 159 17
v 160 18
v 161 41
v 162 20
v 163 4
v 164 36
v 165 30
v 166 3
v 167 10
v 168 25
v 169 5
v 170 0
v 171 50
v 172 25
v 173 12
v 174 7
v 175 18
v 176 45
v 177 11
v 178 39
v 179 8
v 180 6
v 181 43
v 182 2
v 183 37
v 184 24
v 185 19
v 186 20
v 187 13
v 188 27
v 189 21
v 190 27
v 191 36
v 192 10
v 193 12
v 194 23
v 195 5
v 196 7
v 197 28
v 198 1
v 199 38
v 200 26
v 201 15
v 202 9
v 203 0
v 204 9
v 205 20
v 206 27
v 207 0
v 208 19
v 209 0
v 210 12
v 211 22
v 212 22
v 213 28
v 214 9
v 215 4
v 216 47
v 217 21
v 218 53
v 219 16
v 220 21
v 221 54
v 222 32
v 223 35
v 224 40
v 225 36
v 226 27
v 227 9
v 228 27
v 229 10
v 230 26
v 231 14
v 232 40
v 233 50
v 234 34
v 235 38
v 236 14
v 237 39
v 238 22
v 239 30
v 240 25
v 241 7
v 242 4
v 243 8
v 244 34
v 245 8
v 246 40
v 247 24
v 248 2
v 249 33
v 250 23
v 251 33
v 252 42
v 253 22
v 254 3
v 255 1
v 256 4
v 257 31
v 258 3
v 259 30
v 260 35
v 261 0
v 262 7
v 263 52
v 264 12
v 265 35
v 266 26
v 267 34
v 268 29
v 269 8
v 270 5
v 271 1
v 272 45
v 273 36
v 274 11
v 275 27
v 276 1
v 277 13
v 278 41
v 279 47
v 280 48
v 281 31
v 282 29
v 283 24
v 284 46
v 285 25
v 286 4
v 287 21
v 288 28
v 289 16
v 290 9
v 291 8
v 292 35
v 293 0
v 294 39
v 295 49
v 296 17
v 297 33
v 298 37
v 299 31
v 300 0
